(benchmark program
 :status sat
 :logic QF_LIA
:extrafuns ((memory_disp_2555904 BitVec[32])(memory_disp_98959360 BitVec[32])(memory_disp_2424832 BitVec[32])(memory_disp_3538944 BitVec[32])(memory_disp_75038720 BitVec[32])(TOP BitVec[32]))
:formula(and ( =  (= (bvsub memory_disp_2555904 bv17744[32]) bv0[32]) false)( =  (= (bvsub memory_disp_98959360 bv17744[32]) bv0[32]) false)( =  (= (bvsub memory_disp_2424832 bv17744[32]) bv0[32]) false)( =  (= (bvsub memory_disp_3538944 bv17744[32]) bv0[32]) false)( =  (= (bvsub memory_disp_75038720 bv17744[32]) bv0[32]) false)( not  (= (= (bvsub memory_disp_3538944 bv17744[32]) bv0[32]) false)) )
)
